;; ===================== PROJECTED CANON (QE) =====================
;; Each clause below is entailed by Proj = ∃W.F over the canonical vocabulary.
;; Units appear first for clarity; OR-clauses (SAT-filtered) follow.
;; ==================================================================

;; Unit Bool constraints (entailed)
(assert (not patient_has_undergone_influenza_vaccination_inthehistory))
(assert (not patient_has_finding_of_allergy_to_egg_protein_inthehistory))
(assert (not patient_has_finding_of_guillain_barr_syndrome_inthehistory))
(assert (not patient_has_finding_of_common_cold_now))
(assert (not patient_has_finding_of_nasal_congestion_inthepast72hours))
(assert (not patient_has_finding_of_influenza_like_illness_now))
(assert (not patient_has_finding_of_immunodeficiency_disorder_now))
(assert (not patient_has_finding_of_patient_immunosuppressed_now))
(assert (not patient_has_finding_of_wheezing_inthehistory))
(assert (not patient_has_taken_immunoglobulin_containing_product_inthepast3months))
